p cnf 200 963
149 150 0
-149 -150 0
-1 -2 0
-3 -4 0
-149 1 2 0
-150 3 4 0
149 -1 0
149 -2 0
150 -3 0
150 -4 0
-1 25 0
-1 5 0
-2 26 0
-2 6 0
-3 27 0
-3 7 0
-4 28 0
-4 8 0
151 152 0
-151 -152 0
-5 -6 0
-7 -8 0
-151 5 6 0
-152 7 8 0
151 -5 0
151 -6 0
152 -7 0
152 -8 0
-5 1 9 0
-5 1 29 0
-5 9 29 0
-6 2 10 0
-6 2 30 0
-6 10 30 0
-7 3 11 0
-7 3 31 0
-7 11 31 0
-8 4 12 0
-8 4 32 0
-8 12 32 0
-5 -1 -9 -29 0
-6 -2 -10 -30 0
-7 -3 -11 -31 0
-8 -4 -12 -32 0
153 154 0
-153 -154 0
-9 -10 0
-11 -12 0
-153 9 10 0
-154 11 12 0
153 -9 0
153 -10 0
154 -11 0
154 -12 0
-9 5 13 0
-9 5 33 0
-9 13 33 0
-10 6 14 0
-10 6 34 0
-10 14 34 0
-11 7 15 0
-11 7 35 0
-11 15 35 0
-12 8 16 0
-12 8 36 0
-12 16 36 0
-9 -5 -13 -33 0
-10 -6 -14 -34 0
-11 -7 -15 -35 0
-12 -8 -16 -36 0
-13 0
-14 0
-16 0
15 0
11 19 39 0
-11 -19 0
-11 -39 0
-19 -39 0
157 158 0
-157 -158 0
-17 -18 0
-19 -20 0
-157 17 18 0
-158 19 20 0
157 -17 0
157 -18 0
158 -19 0
158 -20 0
-17 13 21 0
-17 13 41 0
-17 21 41 0
-18 14 22 0
-18 14 42 0
-18 22 42 0
-19 15 23 0
-19 15 43 0
-19 23 43 0
-20 16 24 0
-20 16 44 0
-20 24 44 0
-17 -13 -21 -41 0
-18 -14 -22 -42 0
-19 -15 -23 -43 0
-20 -16 -24 -44 0
-21 0
-23 0
-24 0
22 0
46 18 0
-46 -18 0
161 162 0
-161 -162 0
-25 -26 0
-27 -28 0
-161 25 26 0
-162 27 28 0
161 -25 0
161 -26 0
162 -27 0
162 -28 0
-25 49 29 0
-25 49 1 0
-25 29 1 0
-26 50 30 0
-26 50 2 0
-26 30 2 0
-27 51 31 0
-27 51 3 0
-27 31 3 0
-28 52 32 0
-28 52 4 0
-28 32 4 0
-25 -49 -29 -1 0
-26 -50 -30 -2 0
-27 -51 -31 -3 0
-28 -52 -32 -4 0
-29 0
-30 0
-31 0
32 0
56 36 8 28 0
-56 -36 0
-56 -8 0
-56 -28 0
-36 -8 0
-36 -28 0
-8 -28 0
165 166 0
-165 -166 0
-33 -34 0
-35 -36 0
-165 33 34 0
-166 35 36 0
165 -33 0
165 -34 0
166 -35 0
166 -36 0
-33 57 37 9 0
-33 57 37 29 0
-33 57 9 29 0
-33 37 9 29 0
-34 58 38 10 0
-34 58 38 30 0
-34 58 10 30 0
-34 38 10 30 0
-35 59 39 11 0
-35 59 39 31 0
-35 59 11 31 0
-35 39 11 31 0
-36 60 40 12 0
-36 60 40 32 0
-36 60 12 32 0
-36 40 12 32 0
-33 -57 -37 -9 0
-33 -57 -37 -29 0
-33 -57 -9 -29 0
-33 -37 -9 -29 0
-34 -58 -38 -10 0
-34 -58 -38 -30 0
-34 -58 -10 -30 0
-34 -38 -10 -30 0
-35 -59 -39 -11 0
-35 -59 -39 -31 0
-35 -59 -11 -31 0
-35 -39 -11 -31 0
-36 -60 -40 -12 0
-36 -60 -40 -32 0
-36 -60 -12 -32 0
-36 -40 -12 -32 0
167 168 0
-167 -168 0
-37 -38 0
-39 -40 0
-167 37 38 0
-168 39 40 0
167 -37 0
167 -38 0
168 -39 0
168 -40 0
-37 61 41 13 0
-37 61 41 33 0
-37 61 13 33 0
-37 41 13 33 0
-38 62 42 14 0
-38 62 42 34 0
-38 62 14 34 0
-38 42 14 34 0
-39 63 43 15 0
-39 63 43 35 0
-39 63 15 35 0
-39 43 15 35 0
-40 64 44 16 0
-40 64 44 36 0
-40 64 16 36 0
-40 44 16 36 0
-37 -61 -41 -13 0
-37 -61 -41 -33 0
-37 -61 -13 -33 0
-37 -41 -13 -33 0
-38 -62 -42 -14 0
-38 -62 -42 -34 0
-38 -62 -14 -34 0
-38 -42 -14 -34 0
-39 -63 -43 -15 0
-39 -63 -43 -35 0
-39 -63 -15 -35 0
-39 -43 -15 -35 0
-40 -64 -44 -16 0
-40 -64 -44 -36 0
-40 -64 -16 -36 0
-40 -44 -16 -36 0
-41 0
-43 0
-44 0
42 0
66 46 18 38 0
-66 -46 0
-66 -18 0
-66 -38 0
-46 -18 0
-46 -38 0
-18 -38 0
-46 0
-47 0
-48 0
45 0
69 41 21 0
-69 -41 0
-69 -21 0
-41 -21 0
173 174 0
-173 -174 0
-49 -50 0
-51 -52 0
-173 49 50 0
-174 51 52 0
173 -49 0
173 -50 0
174 -51 0
174 -52 0
-49 73 53 0
-49 73 25 0
-49 53 25 0
-50 74 54 0
-50 74 26 0
-50 54 26 0
-51 75 55 0
-51 75 27 0
-51 55 27 0
-52 76 56 0
-52 76 28 0
-52 56 28 0
-49 -73 -53 -25 0
-50 -74 -54 -26 0
-51 -75 -55 -27 0
-52 -76 -56 -28 0
175 176 0
-175 -176 0
-53 -54 0
-55 -56 0
-175 53 54 0
-176 55 56 0
175 -53 0
175 -54 0
176 -55 0
176 -56 0
-53 77 57 29 0
-53 77 57 49 0
-53 77 29 49 0
-53 57 29 49 0
-54 78 58 30 0
-54 78 58 50 0
-54 78 30 50 0
-54 58 30 50 0
-55 79 59 31 0
-55 79 59 51 0
-55 79 31 51 0
-55 59 31 51 0
-56 80 60 32 0
-56 80 60 52 0
-56 80 32 52 0
-56 60 32 52 0
-53 -77 -57 -29 0
-53 -77 -57 -49 0
-53 -77 -29 -49 0
-53 -57 -29 -49 0
-54 -78 -58 -30 0
-54 -78 -58 -50 0
-54 -78 -30 -50 0
-54 -58 -30 -50 0
-55 -79 -59 -31 0
-55 -79 -59 -51 0
-55 -79 -31 -51 0
-55 -59 -31 -51 0
-56 -80 -60 -32 0
-56 -80 -60 -52 0
-56 -80 -32 -52 0
-56 -60 -32 -52 0
177 178 0
-177 -178 0
-57 -58 0
-59 -60 0
-177 57 58 0
-178 59 60 0
177 -57 0
177 -58 0
178 -59 0
178 -60 0
-57 81 61 33 0
-57 81 61 53 0
-57 81 33 53 0
-57 61 33 53 0
-58 82 62 34 0
-58 82 62 54 0
-58 82 34 54 0
-58 62 34 54 0
-59 83 63 35 0
-59 83 63 55 0
-59 83 35 55 0
-59 63 35 55 0
-60 84 64 36 0
-60 84 64 56 0
-60 84 36 56 0
-60 64 36 56 0
-57 -81 -61 -33 0
-57 -81 -61 -53 0
-57 -81 -33 -53 0
-57 -61 -33 -53 0
-58 -82 -62 -34 0
-58 -82 -62 -54 0
-58 -82 -34 -54 0
-58 -62 -34 -54 0
-59 -83 -63 -35 0
-59 -83 -63 -55 0
-59 -83 -35 -55 0
-59 -63 -35 -55 0
-60 -84 -64 -36 0
-60 -84 -64 -56 0
-60 -84 -36 -56 0
-60 -64 -36 -56 0
179 180 0
-179 -180 0
-61 -62 0
-63 -64 0
-179 61 62 0
-180 63 64 0
179 -61 0
179 -62 0
180 -63 0
180 -64 0
-61 85 65 37 0
-61 85 65 57 0
-61 85 37 57 0
-61 65 37 57 0
-62 86 66 38 0
-62 86 66 58 0
-62 86 38 58 0
-62 66 38 58 0
-63 87 67 39 0
-63 87 67 59 0
-63 87 39 59 0
-63 67 39 59 0
-64 88 68 40 0
-64 88 68 60 0
-64 88 40 60 0
-64 68 40 60 0
-61 -85 -65 -37 0
-61 -85 -65 -57 0
-61 -85 -37 -57 0
-61 -65 -37 -57 0
-62 -86 -66 -38 0
-62 -86 -66 -58 0
-62 -86 -38 -58 0
-62 -66 -38 -58 0
-63 -87 -67 -39 0
-63 -87 -67 -59 0
-63 -87 -39 -59 0
-63 -67 -39 -59 0
-64 -88 -68 -40 0
-64 -88 -68 -60 0
-64 -88 -40 -60 0
-64 -68 -40 -60 0
-65 0
-66 0
-68 0
67 0
91 71 43 63 0
-91 -71 0
-91 -43 0
-91 -63 0
-71 -43 0
-71 -63 0
-43 -63 0
183 184 0
-183 -184 0
-69 -70 0
-71 -72 0
-183 69 70 0
-184 71 72 0
183 -69 0
183 -70 0
184 -71 0
184 -72 0
-69 93 65 0
-69 93 45 0
-69 65 45 0
-70 94 66 0
-70 94 46 0
-70 66 46 0
-71 95 67 0
-71 95 47 0
-71 67 47 0
-72 96 68 0
-72 96 48 0
-72 68 48 0
-69 -93 -65 -45 0
-70 -94 -66 -46 0
-71 -95 -67 -47 0
-72 -96 -68 -48 0
185 186 0
-185 -186 0
-73 -74 0
-75 -76 0
-185 73 74 0
-186 75 76 0
185 -73 0
185 -74 0
186 -75 0
186 -76 0
-73 97 77 0
-73 97 49 0
-73 77 49 0
-74 98 78 0
-74 98 50 0
-74 78 50 0
-75 99 79 0
-75 99 51 0
-75 79 51 0
-76 100 80 0
-76 100 52 0
-76 80 52 0
-73 -97 -77 -49 0
-74 -98 -78 -50 0
-75 -99 -79 -51 0
-76 -100 -80 -52 0
187 188 0
-187 -188 0
-77 -78 0
-79 -80 0
-187 77 78 0
-188 79 80 0
187 -77 0
187 -78 0
188 -79 0
188 -80 0
-77 101 81 53 0
-77 101 81 73 0
-77 101 53 73 0
-77 81 53 73 0
-78 102 82 54 0
-78 102 82 74 0
-78 102 54 74 0
-78 82 54 74 0
-79 103 83 55 0
-79 103 83 75 0
-79 103 55 75 0
-79 83 55 75 0
-80 104 84 56 0
-80 104 84 76 0
-80 104 56 76 0
-80 84 56 76 0
-77 -101 -81 -53 0
-77 -101 -81 -73 0
-77 -101 -53 -73 0
-77 -81 -53 -73 0
-78 -102 -82 -54 0
-78 -102 -82 -74 0
-78 -102 -54 -74 0
-78 -82 -54 -74 0
-79 -103 -83 -55 0
-79 -103 -83 -75 0
-79 -103 -55 -75 0
-79 -83 -55 -75 0
-80 -104 -84 -56 0
-80 -104 -84 -76 0
-80 -104 -56 -76 0
-80 -84 -56 -76 0
189 190 0
-189 -190 0
-81 -82 0
-83 -84 0
-189 81 82 0
-190 83 84 0
189 -81 0
189 -82 0
190 -83 0
190 -84 0
-81 105 85 57 0
-81 105 85 77 0
-81 105 57 77 0
-81 85 57 77 0
-82 106 86 58 0
-82 106 86 78 0
-82 106 58 78 0
-82 86 58 78 0
-83 107 87 59 0
-83 107 87 79 0
-83 107 59 79 0
-83 87 59 79 0
-84 108 88 60 0
-84 108 88 80 0
-84 108 60 80 0
-84 88 60 80 0
-81 -105 -85 -57 0
-81 -105 -85 -77 0
-81 -105 -57 -77 0
-81 -85 -57 -77 0
-82 -106 -86 -58 0
-82 -106 -86 -78 0
-82 -106 -58 -78 0
-82 -86 -58 -78 0
-83 -107 -87 -59 0
-83 -107 -87 -79 0
-83 -107 -59 -79 0
-83 -87 -59 -79 0
-84 -108 -88 -60 0
-84 -108 -88 -80 0
-84 -108 -60 -80 0
-84 -88 -60 -80 0
-86 0
-87 0
-88 0
85 0
109 89 61 81 0
-109 -89 0
-109 -61 0
-109 -81 0
-89 -61 0
-89 -81 0
-61 -81 0
-89 0
-90 0
-91 0
92 0
116 96 68 88 0
-116 -96 0
-116 -68 0
-116 -88 0
-96 -68 0
-96 -88 0
-68 -88 0
195 196 0
-195 -196 0
-93 -94 0
-95 -96 0
-195 93 94 0
-196 95 96 0
195 -93 0
195 -94 0
196 -95 0
196 -96 0
-93 117 89 0
-93 117 69 0
-93 89 69 0
-94 118 90 0
-94 118 70 0
-94 90 70 0
-95 119 91 0
-95 119 71 0
-95 91 71 0
-96 120 92 0
-96 120 72 0
-96 92 72 0
-93 -117 -89 -69 0
-94 -118 -90 -70 0
-95 -119 -91 -71 0
-96 -120 -92 -72 0
197 198 0
-197 -198 0
-97 -98 0
-99 -100 0
-197 97 98 0
-198 99 100 0
197 -97 0
197 -98 0
198 -99 0
198 -100 0
-97 121 101 0
-97 121 73 0
-97 101 73 0
-98 122 102 0
-98 122 74 0
-98 102 74 0
-99 123 103 0
-99 123 75 0
-99 103 75 0
-100 124 104 0
-100 124 76 0
-100 104 76 0
-97 -121 -101 -73 0
-98 -122 -102 -74 0
-99 -123 -103 -75 0
-100 -124 -104 -76 0
199 200 0
-199 -200 0
-101 -102 0
-103 -104 0
-199 101 102 0
-200 103 104 0
199 -101 0
199 -102 0
200 -103 0
200 -104 0
-101 125 105 77 0
-101 125 105 97 0
-101 125 77 97 0
-101 105 77 97 0
-102 126 106 78 0
-102 126 106 98 0
-102 126 78 98 0
-102 106 78 98 0
-103 127 107 79 0
-103 127 107 99 0
-103 127 79 99 0
-103 107 79 99 0
-104 128 108 80 0
-104 128 108 100 0
-104 128 80 100 0
-104 108 80 100 0
-101 -125 -105 -77 0
-101 -125 -105 -97 0
-101 -125 -77 -97 0
-101 -105 -77 -97 0
-102 -126 -106 -78 0
-102 -126 -106 -98 0
-102 -126 -78 -98 0
-102 -106 -78 -98 0
-103 -127 -107 -79 0
-103 -127 -107 -99 0
-103 -127 -79 -99 0
-103 -107 -79 -99 0
-104 -128 -108 -80 0
-104 -128 -108 -100 0
-104 -128 -80 -100 0
-104 -108 -80 -100 0
201 202 0
-201 -202 0
-105 -106 0
-107 -108 0
-201 105 106 0
-202 107 108 0
201 -105 0
201 -106 0
202 -107 0
202 -108 0
-105 129 109 81 0
-105 129 109 101 0
-105 129 81 101 0
-105 109 81 101 0
-106 130 110 82 0
-106 130 110 102 0
-106 130 82 102 0
-106 110 82 102 0
-107 131 111 83 0
-107 131 111 103 0
-107 131 83 103 0
-107 111 83 103 0
-108 132 112 84 0
-108 132 112 104 0
-108 132 84 104 0
-108 112 84 104 0
-105 -129 -109 -81 0
-105 -129 -109 -101 0
-105 -129 -81 -101 0
-105 -109 -81 -101 0
-106 -130 -110 -82 0
-106 -130 -110 -102 0
-106 -130 -82 -102 0
-106 -110 -82 -102 0
-107 -131 -111 -83 0
-107 -131 -111 -103 0
-107 -131 -83 -103 0
-107 -111 -83 -103 0
-108 -132 -112 -84 0
-108 -132 -112 -104 0
-108 -132 -84 -104 0
-108 -112 -84 -104 0
203 204 0
-203 -204 0
-109 -110 0
-111 -112 0
-203 109 110 0
-204 111 112 0
203 -109 0
203 -110 0
204 -111 0
204 -112 0
-109 133 113 85 0
-109 133 113 105 0
-109 133 85 105 0
-109 113 85 105 0
-110 134 114 86 0
-110 134 114 106 0
-110 134 86 106 0
-110 114 86 106 0
-111 135 115 87 0
-111 135 115 107 0
-111 135 87 107 0
-111 115 87 107 0
-112 136 116 88 0
-112 136 116 108 0
-112 136 88 108 0
-112 116 88 108 0
-109 -133 -113 -85 0
-109 -133 -113 -105 0
-109 -133 -85 -105 0
-109 -113 -85 -105 0
-110 -134 -114 -86 0
-110 -134 -114 -106 0
-110 -134 -86 -106 0
-110 -114 -86 -106 0
-111 -135 -115 -87 0
-111 -135 -115 -107 0
-111 -135 -87 -107 0
-111 -115 -87 -107 0
-112 -136 -116 -88 0
-112 -136 -116 -108 0
-112 -136 -88 -108 0
-112 -116 -88 -108 0
205 206 0
-205 -206 0
-113 -114 0
-115 -116 0
-205 113 114 0
-206 115 116 0
205 -113 0
205 -114 0
206 -115 0
206 -116 0
-113 137 117 89 0
-113 137 117 109 0
-113 137 89 109 0
-113 117 89 109 0
-114 138 118 90 0
-114 138 118 110 0
-114 138 90 110 0
-114 118 90 110 0
-115 139 119 91 0
-115 139 119 111 0
-115 139 91 111 0
-115 119 91 111 0
-116 140 120 92 0
-116 140 120 112 0
-116 140 92 112 0
-116 120 92 112 0
-113 -137 -117 -89 0
-113 -137 -117 -109 0
-113 -137 -89 -109 0
-113 -117 -89 -109 0
-114 -138 -118 -90 0
-114 -138 -118 -110 0
-114 -138 -90 -110 0
-114 -118 -90 -110 0
-115 -139 -119 -91 0
-115 -139 -119 -111 0
-115 -139 -91 -111 0
-115 -119 -91 -111 0
-116 -140 -120 -92 0
-116 -140 -120 -112 0
-116 -140 -92 -112 0
-116 -120 -92 -112 0
207 208 0
-207 -208 0
-117 -118 0
-119 -120 0
-207 117 118 0
-208 119 120 0
207 -117 0
207 -118 0
208 -119 0
208 -120 0
-117 141 113 0
-117 141 93 0
-117 113 93 0
-118 142 114 0
-118 142 94 0
-118 114 94 0
-119 143 115 0
-119 143 95 0
-119 115 95 0
-120 144 116 0
-120 144 96 0
-120 116 96 0
-117 -141 -113 -93 0
-118 -142 -114 -94 0
-119 -143 -115 -95 0
-120 -144 -116 -96 0
209 210 0
-209 -210 0
-121 -122 0
-123 -124 0
-209 121 122 0
-210 123 124 0
209 -121 0
209 -122 0
210 -123 0
210 -124 0
-121 97 0
-121 125 0
-122 98 0
-122 126 0
-123 99 0
-123 127 0
-124 100 0
-124 128 0
211 212 0
-211 -212 0
-125 -126 0
-127 -128 0
-211 125 126 0
-212 127 128 0
211 -125 0
211 -126 0
212 -127 0
212 -128 0
-125 101 129 0
-125 101 121 0
-125 129 121 0
-126 102 130 0
-126 102 122 0
-126 130 122 0
-127 103 131 0
-127 103 123 0
-127 131 123 0
-128 104 132 0
-128 104 124 0
-128 132 124 0
-125 -101 -129 -121 0
-126 -102 -130 -122 0
-127 -103 -131 -123 0
-128 -104 -132 -124 0
213 214 0
-213 -214 0
-129 -130 0
-131 -132 0
-213 129 130 0
-214 131 132 0
213 -129 0
213 -130 0
214 -131 0
214 -132 0
-129 105 133 0
-129 105 125 0
-129 133 125 0
-130 106 134 0
-130 106 126 0
-130 134 126 0
-131 107 135 0
-131 107 127 0
-131 135 127 0
-132 108 136 0
-132 108 128 0
-132 136 128 0
-129 -105 -133 -125 0
-130 -106 -134 -126 0
-131 -107 -135 -127 0
-132 -108 -136 -128 0
215 216 0
-215 -216 0
-133 -134 0
-135 -136 0
-215 133 134 0
-216 135 136 0
215 -133 0
215 -134 0
216 -135 0
216 -136 0
-133 109 137 0
-133 109 129 0
-133 137 129 0
-134 110 138 0
-134 110 130 0
-134 138 130 0
-135 111 139 0
-135 111 131 0
-135 139 131 0
-136 112 140 0
-136 112 132 0
-136 140 132 0
-133 -109 -137 -129 0
-134 -110 -138 -130 0
-135 -111 -139 -131 0
-136 -112 -140 -132 0
217 218 0
-217 -218 0
-137 -138 0
-139 -140 0
-217 137 138 0
-218 139 140 0
217 -137 0
217 -138 0
218 -139 0
218 -140 0
-137 113 141 0
-137 113 133 0
-137 141 133 0
-138 114 142 0
-138 114 134 0
-138 142 134 0
-139 115 143 0
-139 115 135 0
-139 143 135 0
-140 116 144 0
-140 116 136 0
-140 144 136 0
-137 -113 -141 -133 0
-138 -114 -142 -134 0
-139 -115 -143 -135 0
-140 -116 -144 -136 0
219 220 0
-219 -220 0
-141 -142 0
-143 -144 0
-219 141 142 0
-220 143 144 0
219 -141 0
219 -142 0
220 -143 0
220 -144 0
-141 117 0
-141 137 0
-142 118 0
-142 138 0
-143 119 0
-143 139 0
-144 120 0
-144 140 0
49 53 57 61 69 0
17 113 137 0
27 35 39 0
52 56 60 64 72 0
12 36 60 84 108 132 0
40 64 112 136 0